p cnf 18 29

c Gate G1: ((¬A ∧ B) <-> G1)
12 1 -2 5 0
12 -5 -1 0
12 -5 2 0

c Gate G2: ((A ∧ ¬B) <-> G2)
13 -1 2 6 0
13 -6 1 0
13 -6 -2 0

c Gate G3: ((¬C ∧ D) <-> G3)
14 3 -4 7 0
14 -7 -3 0
14 -7 4 0

c Gate G4: ((¬D ∧ C) <-> G4)
15 4 -3 8 0
15 -8 -4 0
15 -8 3 0

c Gate G5: ((G1 ∧ G2) <-> G5)
16 -5 -6 9 0
16 -9 5 0
16 -9 6 0

c Gate G6: ((G3 ∧ G4) <-> G6)
17 -7 -8 10 0
17 -10 7 0
17 -10 8 0

c Gate G7: ((¬G5 ∨ ¬G6) <-> G7)
18 9 11 0
18 10 11 0
18 -11 -9 -10 0

c Observation 1
11 0
-12 0
-13 0
-14 0
-15 0
-16 0
-17 0
-18 0

